NAME : C6.412957.tour
COMMENT : Length = 412957
COMMENT : Found by LKH [Keld Helsgaun] Mon Dec 18 16:02:21 2017
TYPE : TOUR
DIMENSION : 56
TOUR_SECTION
1
48
19
5
18
38
45
16
46
34
54
12
39
10
51
17
3
30
22
35
31
53
28
49
9
27
8
24
25
44
55
47
13
6
50
11
40
56
33
2
23
32
29
4
21
36
37
52
7
15
26
14
42
20
43
41
-1
EOF
